30
0 1 0.34 0.02
0 2 0.84 0.26
0 3 0.79 0.08
0 4 0.74 0.24
0 5 0.78 0.35
0 6 0.56 0.18
0 7 0.63 0.29
0 8 0.72 0.31
0 9 0.76 0.29
0 10 0.24 0.04
0 11 0.72 0.22
0 12 0.48 0.18
0 13 0.52 0.35
0 14 0.63 0.22
0 15 0.34 0.24
0 16 0.56 0.28
0 17 0.46 0.18
0 18 0.54 0.29
0 19 0.6 0.42
0 20 0.66 0.36
0 21 0.58 0.12
0 22 0.64 0.18
0 23 0.74 0.18
0 24 0.66 0.32
0 25 0.56 0.3
0 26 0.52 0.3
0 27 0.7 0.18
0 28 0.5 0.32
0 29 0.56 0.21
1 2 0.57 0.24
1 3 0.66 0.06
1 4 0.66 0.25
1 5 0.47 0.36
1 6 0.76 0.2
1 7 0.58 0.3
1 8 0.54 0.32
1 9 0.8 0.29
1 10 0.42 0.06
1 11 0.38 0.2
1 12 0.7 0.2
1 13 0.77 0.37
1 14 0.57 0.2
1 15 0.49 0.26
1 16 0.66 0.26
1 17 0.76 0.16
1 18 0.69 0.28
1 19 0.75 0.42
1 20 0.82 0.34
1 21 0.59 0.1
1 22 0.59 0.2
1 23 0.82 0.2
1 24 0.68 0.3
1 25 0.78 0.32
1 26 0.54 0.32
1 27 0.36 0.16
1 28 0.72 0.34
1 29 0.69 0.23
2 3 0.9 0.3
2 4 0.68 0.48
2 5 0.32 0.27
2 6 0.45 0.42
2 7 0.64 0.45
2 8 0.74 0.46
2 9 0.62 0.2
2 10 0.83 0.3
2 11 0.8 0.28
2 12 0.47 0.31
2 13 0.63 0.36
2 14 0.72 0.26
2 15 0.58 0.32
2 16 0.66 0.4
2 17 0.44 0.3
2 18 0.64 0.39
2 19 0.53 0.34
2 20 0.49 0.3
2 21 0.83 0.24
2 22 0.52 0.44
2 23 0.64 0.44
2 24 0.67 0.4
2 25 0.54 0.3
2 26 0.4 0.26
2 27 0.35 0.31
2 28 0.62 0.39
2 29 0.54 0.4
3 4 0.28 0.19
3 5 0.73 0.3
3 6 0.62 0.26
3 7 0.68 0.36
3 8 0.56 0.26
3 9 0.76 0.35
3 10 0.63 0.12
3 11 0.76 0.26
3 12 0.63 0.26
3 13 0.56 0.43
3 14 0.58 0.26
3 15 0.48 0.32
3 16 0.56 0.32
3 17 0.48 0.22
3 18 0.38 0.33
3 19 0.48 0.36
3 20 0.52 0.38
3 21 0.54 0.16
3 22 0.48 0.26
3 23 0.75 0.26
3 24 0.5 0.34
3 25 0.48 0.38
3 26 0.62 0.38
3 27 0.62 0.22
3 28 0.54 0.4
3 29 0.55 0.27
4 5 0.74 0.22
4 6 0.62 0.11
4 7 0.4 0.17
4 8 0.83 0.07
4 9 0.7 0.37
4 10 0.68 0.2
4 11 0.78 0.2
4 12 0.56 0.27
4 13 0.7 0.28
4 14 0.67 0.33
4 15 0.4 0.18
4 16 0.73 0.31
4 17 0.48 0.21
4 18 0.6 0.3
4 19 0.6 0.3
4 20 0.6 0.34
4 21 0.44 0.35
4 22 0.61 0.34
4 23 0.47 0.32
4 24 0.4 0.16
4 25 0.48 0.23
4 26 0.56 0.27
4 27 0.5 0.23
4 28 0.56 0.26
4 29 0.56 0.08
5 6 0.52 0.17
5 7 0.5 0.22
5 8 0.66 0.28
5 9 0.36 0.32
5 10 0.8 0.39
5 11 0.6 0.23
5 12 0.67 0.23
5 13 0.63 0.25
5 14 0.78 0.32
5 15 0.44 0.2
5 16 0.6 0.24
5 17 0.62 0.22
5 18 0.62 0.12
5 19 0.43 0.08
5 20 0.42 0.36
5 21 0.51 0.36
5 22 0.64 0.31
5 23 0.67 0.34
5 24 0.44 0.28
5 25 0.8 0.14
5 26 0.62 0.29
5 27 0.67 0.34
5 28 0.3 0.12
5 29 0.22 0.14
6 7 0.68 0.28
6 8 0.44 0.16
6 9 0.72 0.42
6 10 0.66 0.22
6 11 0.5 0.15
6 12 0.76 0.36
6 13 0.38 0.17
6 14 0.7 0.28
6 15 0.61 0.13
6 16 0.69 0.22
6 17 0.62 0.32
6 18 0.74 0.26
6 19 0.38 0.24
6 20 0.56 0.29
6 21 0.52 0.3
6 22 0.27 0.24
6 23 0.65 0.36
6 24 0.78 0.27
6 25 0.52 0.12
6 26 0.61 0.22
6 27 0.6 0.32
6 28 0.6 0.21
6 29 0.39 0.03
7 8 0.58 0.24
7 9 0.36 0.27
7 10 0.39 0.25
7 11 0.52 0.35
7 12 0.56 0.38
7 13 0.57 0.14
7 14 0.32 0.22
7 15 0.55 0.22
7 16 0.8 0.35
7 17 0.6 0.33
7 18 0.46 0.27
7 19 0.79 0.3
7 20 0.49 0.32
7 21 0.79 0.4
7 22 0.41 0.3
7 23 0.62 0.28
7 24 0.74 0.33
7 25 0.46 0.36
7 26 0.48 0.19
7 27 0.82 0.4
7 28 0.35 0.29
7 29 0.33 0.25
8 9 0.7 0.31
8 10 0.84 0.27
8 11 0.46 0.27
8 12 0.57 0.2
8 13 0.7 0.3
8 14 0.6 0.36
8 15 0.6 0.25
8 16 0.74 0.34
8 17 0.72 0.24
8 18 0.4 0.31
8 19 0.58 0.36
8 20 0.67 0.33
8 21 0.5 0.42
8 22 0.62 0.4
8 23 0.68 0.26
8 24 0.74 0.23
8 25 0.61 0.28
8 26 0.64 0.2
8 27 0.56 0.16
8 28 0.83 0.33
8 29 0.62 0.15
9 10 0.75 0.33
9 11 0.64 0.27
9 12 0.61 0.11
9 13 0.34 0.33
9 14 0.64 0.14
9 15 0.6 0.32
9 16 0.55 0.26
9 17 0.5 0.16
9 18 0.4 0.2
9 19 0.79 0.4
9 20 0.57 0.18
9 21 0.69 0.19
9 22 0.77 0.39
9 23 0.88 0.38
9 24 0.65 0.34
9 25 0.61 0.36
9 26 0.57 0.31
9 27 0.77 0.28
9 28 0.66 0.4
9 29 0.56 0.39
10 11 0.62 0.26
10 12 0.43 0.22
10 13 0.6 0.38
10 14 0.71 0.26
10 15 0.58 0.24
10 16 0.67 0.3
10 17 0.6 0.2
10 18 0.6 0.33
10 19 0.68 0.45
10 20 0.86 0.34
10 21 0.76 0.16
10 22 0.42 0.14
10 23 0.5 0.14
10 24 0.68 0.36
10 25 0.56 0.3
10 26 0.76 0.33
10 27 0.78 0.22
10 28 0.74 0.32
10 29 0.72 0.25
11 12 0.75 0.22
11 13 0.4 0.24
11 14 0.2 0.13
11 15 0.47 0.22
11 16 0.62 0.24
11 17 0.48 0.25
11 18 0.38 0.11
11 19 0.73 0.31
11 20 0.44 0.14
11 21 0.43 0.28
11 22 0.77 0.3
11 23 0.58 0.33
11 24 0.4 0.16
11 25 0.4 0.14
11 26 0.53 0.21
11 27 0.7 0.3
11 28 0.49 0.3
11 29 0.69 0.12
12 13 0.65 0.24
12 14 0.62 0.25
12 15 0.6 0.25
12 16 0.6 0.37
12 17 0.64 0.27
12 18 0.54 0.11
12 19 0.52 0.31
12 20 0.43 0.29
12 21 0.74 0.3
12 22 0.77 0.3
12 23 0.35 0.32
12 24 0.68 0.23
12 25 0.68 0.36
12 26 0.42 0.2
12 27 0.44 0.17
12 28 0.6 0.33
12 29 0.58 0.34
13 14 0.55 0.3
13 15 0.41 0.19
13 16 0.31 0.21
13 17 0.68 0.31
13 18 0.47 0.13
13 19 0.5 0.33
13 20 0.64 0.23
13 21 0.4 0.38
13 22 0.65 0.24
13 23 0.57 0.35
13 24 0.63 0.24
13 25 0.48 0.29
13 26 0.23 0.1
13 27 0.63 0.38
13 28 0.64 0.27
13 29 0.63 0.2
14 15 0.59 0.28
14 16 0.48 0.22
14 17 0.28 0.12
14 18 0.58 0.24
14 19 0.58 0.4
14 20 0.38 0.14
14 21 0.47 0.3
14 22 0.73 0.4
14 23 0.52 0.34
14 24 0.44 0.26
14 25 0.6 0.27
14 26 0.62 0.2
14 27 0.5 0.25
14 28 0.66 0.34
14 29 0.56 0.25
15 16 0.54 0.24
15 17 0.31 0.23
15 18 0.2 0.14
15 19 0.26 0.21
15 20 0.59 0.22
15 21 0.42 0.25
15 22 0.66 0.33
15 23 0.62 0.36
15 24 0.58 0.23
15 25 0.58 0.14
15 26 0.18 0.09
15 27 0.54 0.37
15 28 0.23 0.08
15 29 0.22 0.1
16 17 0.5 0.1
16 18 0.53 0.34
16 19 0.8 0.32
16 20 0.56 0.35
16 21 0.46 0.24
16 22 0.88 0.18
16 23 0.46 0.43
16 24 0.6 0.31
16 25 0.45 0.1
16 26 0.54 0.31
16 27 0.47 0.4
16 28 0.5 0.32
16 29 0.64 0.25
17 18 0.51 0.34
17 19 0.57 0.3
17 20 0.66 0.26
17 21 0.73 0.26
17 22 0.52 0.28
17 23 0.8 0.34
17 24 0.72 0.37
17 25 0.75 0.2
17 26 0.49 0.28
17 27 0.5 0.3
17 28 0.38 0.31
17 29 0.53 0.29
18 19 0.46 0.2
18 20 0.5 0.25
18 21 0.6 0.38
18 22 0.48 0.19
18 23 0.48 0.22
18 24 0.64 0.27
18 25 0.38 0.25
18 26 0.24 0.17
18 27 0.7 0.28
18 28 0.43 0.22
18 29 0.42 0.23
19 20 0.82 0.28
19 21 0.68 0.43
19 22 0.65 0.32
19 23 0.7 0.42
19 24 0.61 0.2
19 25 0.44 0.22
19 26 0.44 0.3
19 27 0.69 0.34
19 28 0.44 0.2
19 29 0.48 0.22
20 21 0.54 0.37
20 22 0.52 0.44
20 23 0.6 0.2
20 24 0.78 0.27
20 25 0.48 0.28
20 26 0.41 0.13
20 27 0.61 0.2
20 28 0.7 0.3
20 29 0.64 0.26
21 22 0.42 0.3
21 23 0.91 0.3
21 24 0.56 0.4
21 25 0.78 0.34
21 26 0.6 0.34
21 27 0.57 0.26
21 28 0.65 0.33
21 29 0.64 0.33
22 23 0.71 0.28
22 24 0.84 0.24
22 25 0.58 0.28
22 26 0.64 0.34
22 27 0.52 0.36
22 28 0.67 0.41
22 29 0.66 0.27
23 24 0.84 0.23
23 25 0.54 0.44
23 26 0.44 0.33
23 27 0.66 0.36
23 28 0.61 0.3
23 29 0.78 0.39
24 25 0.46 0.3
24 26 0.4 0.14
24 27 0.32 0.14
24 28 0.74 0.31
24 29 0.58 0.24
25 26 0.62 0.23
25 27 0.48 0.38
25 28 0.74 0.22
25 29 0.79 0.15
26 27 0.46 0.28
26 28 0.41 0.17
26 29 0.4 0.19
27 28 0.74 0.45
27 29 0.76 0.31
28 29 0.45 0.18
